p cnf 30 30
-1 2 3 4 8 13 18 19 20 21 22 23 24 25 26 29 0 
-2 1 3 4 8 13 18 19 20 21 22 23 24 25 26 29 0 
-3 1 2 4 8 13 18 19 20 21 22 23 24 25 26 29 0 
-4 1 2 3 8 13 18 19 20 21 22 23 24 25 26 29 0 
-5 6 7 11 29 0 
-6 5 7 11 29 0 
-7 5 6 11 29 0 
-8 1 2 3 4 13 18 19 20 21 22 23 24 25 26 29 0 
-9 29 0 
-10 29 0 
-11 5 6 7 29 0 
-12 29 0 
-13 1 2 3 4 8 18 19 20 21 22 23 24 25 26 29 0 
-14 30 0 
-15 29 0 
-13 1 2 3 4 8 18 19 20 21 22 23 24 25 26 30 0 
-16 29 0 
-16 30 0 
-17 30 0 
-18 1 2 3 4 8 13 19 20 21 22 23 24 25 26 29 0 
-19 1 2 3 4 8 13 18 20 21 22 23 24 25 26 29 0 
-20 1 2 3 4 8 13 18 19 21 22 23 24 25 26 29 0 
-21 1 2 3 4 8 13 18 19 20 22 23 24 25 26 29 0 
-22 1 2 3 4 8 13 18 19 20 21 23 24 25 26 29 0 
-23 1 2 3 4 8 13 18 19 20 21 22 24 25 26 29 0 
-24 1 2 3 4 8 13 18 19 20 21 22 23 25 26 29 0 
-25 1 2 3 4 8 13 18 19 20 21 22 23 24 26 29 0 
-26 1 2 3 4 8 13 18 19 20 21 22 23 24 25 29 0 
-27 30 0 
-28 29 0 
